(declare-const __VERIFIER_assert__cond___16 Int)
(declare-const |__VERIFIER_assert__cond___15':143:161:168:337:461:1186| Int)
(declare-const havoc Int)
(declare-const |phi___tmp_383_0:351:450:1175| Int)
(declare-const |main____CPAchecker_TMP_0___0':142:165:172:341:465:1190| Int)
(declare-const |__VERIFIER_assert__cond___16':144:164:171:340:464:1189| Int)
(declare-const |K:158:159:166:335:459:1184| Int)
(declare-const |phi___tmp_247_0:350:451:1176| Int)
(declare-const |phi_main____CPAchecker_TMP_0:348:453:1178| Int)
(declare-const |phi_main__t:349:452:1177| Int)
(declare-const |main__t':140:160:167:336:460:1185| Int)
(declare-const __VERIFIER_assert__cond___11 Int)
(declare-const __VERIFIER_assert__cond___12 Int)
(declare-const |main____CPAchecker_TMP_0':141:162:169:338:462:1187| Int)
(declare-const __tmp_383_0 Int)
(declare-const |phi___VERIFIER_assert__cond___16:343:458:1183| Int)
(declare-const |havoc:3:58:1174| Int)
(declare-const |phi_main____CPAchecker_TMP_0___0:345:456:1181| Int)
(declare-const main____CPAchecker_TMP_0___0 Int)
(declare-const __VERIFIER_assert__cond___15 Int)
(declare-const |havoc:9:59:138:334:342:466:1191| Int)
(declare-const |phi___VERIFIER_assert__cond___12:346:455:1180| Int)
(declare-const |phi___VERIFIER_assert__cond___11:347:454:1179| Int)
(declare-const |phi___VERIFIER_assert__cond___15:344:457:1182| Int)
(declare-const |__tmp_383_0':139:163:170:339:463:1188| Int)
(assert (and (<= (+ (- havoc) 1) 0) (not (= (+ (- havoc) 1) 0))
               (or (and (not (= |havoc:3:58:1174| 0))
                          (= (+ (- |phi___tmp_383_0:351:450:1175|)
                                  __tmp_383_0) 0)
                          (= (+ (- |phi___tmp_247_0:350:451:1176|)
                                  |havoc:3:58:1174|) 0)
                          (= (- |phi_main__t:349:452:1177|) 0)
                          (= (+ (- |phi_main____CPAchecker_TMP_0:348:453:1178|)
                                  |havoc:3:58:1174|) 0)
                          (= (+ (- |phi___VERIFIER_assert__cond___11:347:454:1179|)
                                  __VERIFIER_assert__cond___11) 0)
                          (= (+ (- |phi___VERIFIER_assert__cond___12:346:455:1180|)
                                  __VERIFIER_assert__cond___12) 0)
                          (= (+ (- |phi_main____CPAchecker_TMP_0___0:345:456:1181|)
                                  main____CPAchecker_TMP_0___0) 0)
                          (= (+ (- |phi___VERIFIER_assert__cond___15:344:457:1182|)
                                  __VERIFIER_assert__cond___15) 0)
                          (= (+ (- |phi___VERIFIER_assert__cond___16:343:458:1183|)
                                  __VERIFIER_assert__cond___16) 0))
                     (and (= |havoc:3:58:1174| 0)
                            (not (= (ite (<= (+ (- havoc) 1) 0) 1 0) 0))
                            (or (not (<= (- |K:158:159:166:335:459:1184|) 0))
                                  (= (+ |main__t':140:160:167:336:460:1185|
                                          (- |K:158:159:166:335:459:1184|)) 0))
                            (or (not (and (<= (- |K:158:159:166:335:459:1184|) 0)
                                            (<= |K:158:159:166:335:459:1184| 0)))
                                  (= (+ |__VERIFIER_assert__cond___15':143:161:168:337:461:1186|
                                          (- __VERIFIER_assert__cond___15)) 0))
                            (or (not (<= (+ (- |K:158:159:166:335:459:1184|)
                                              1) 0))
                                  (= (+ |__VERIFIER_assert__cond___15':143:161:168:337:461:1186|
                                          -1) 0))
                            (or (not (and (<= (- |K:158:159:166:335:459:1184|) 0)
                                            (<= |K:158:159:166:335:459:1184| 0)))
                                  (= (+ |main____CPAchecker_TMP_0':141:162:169:338:462:1187|
                                          (- |havoc:3:58:1174|)) 0))
                            (or (not (<= (+ (- |K:158:159:166:335:459:1184|)
                                              1) 0))
                                  (= |main____CPAchecker_TMP_0':141:162:169:338:462:1187| 0))
                            (or (not (and (<= (- |K:158:159:166:335:459:1184|) 0)
                                            (<= |K:158:159:166:335:459:1184| 0)))
                                  (= (+ |__tmp_383_0':139:163:170:339:463:1188|
                                          (- |havoc:3:58:1174|)) 0))
                            (or (not (<= (+ (- |K:158:159:166:335:459:1184|)
                                              1) 0))
                                  (= |__tmp_383_0':139:163:170:339:463:1188| 0))
                            (or (not (and (<= (- |K:158:159:166:335:459:1184|) 0)
                                            (<= |K:158:159:166:335:459:1184| 0)))
                                  (= (+ |__VERIFIER_assert__cond___16':144:164:171:340:464:1189|
                                          (- __VERIFIER_assert__cond___16)) 0))
                            (or (not (<= (+ (- |K:158:159:166:335:459:1184|)
                                              1) 0))
                                  (= (+ |__VERIFIER_assert__cond___16':144:164:171:340:464:1189|
                                          -1) 0))
                            (or (not (and (<= (- |K:158:159:166:335:459:1184|) 0)
                                            (<= |K:158:159:166:335:459:1184| 0)))
                                  (= (+ |main____CPAchecker_TMP_0___0':142:165:172:341:465:1190|
                                          (- main____CPAchecker_TMP_0___0)) 0))
                            (or (not (<= (+ (- |K:158:159:166:335:459:1184|)
                                              1) 0))
                                  (= |main____CPAchecker_TMP_0___0':142:165:172:341:465:1190| 0))
                            (or (and (= |K:158:159:166:335:459:1184| 0)
                                       (= (+ (- |__VERIFIER_assert__cond___16':144:164:171:340:464:1189|)
                                               __VERIFIER_assert__cond___16) 0)
                                       (= (+ (- |__VERIFIER_assert__cond___15':143:161:168:337:461:1186|)
                                               __VERIFIER_assert__cond___15) 0)
                                       (= (+ (- |main____CPAchecker_TMP_0___0':142:165:172:341:465:1190|)
                                               main____CPAchecker_TMP_0___0) 0)
                                       (= (+ (- |main____CPAchecker_TMP_0':141:162:169:338:462:1187|)
                                               |havoc:3:58:1174|) 0)
                                       (= (- |main__t':140:160:167:336:460:1185|) 0)
                                       (= (+ (- |__tmp_383_0':139:163:170:339:463:1188|)
                                               |havoc:3:58:1174|) 0))
                                  (and (<= (+ (- |K:158:159:166:335:459:1184|)
                                                1) 0) (= |havoc:3:58:1174| 0)
                                         (= |havoc:3:58:1174| 0)
                                         (<= (+ (- havoc) 3) 0)
                                         (= (+ |__VERIFIER_assert__cond___16':144:164:171:340:464:1189|
                                                 -1) 0)
                                         (= (+ |__VERIFIER_assert__cond___15':143:161:168:337:461:1186|
                                                 -1) 0)
                                         (= |main____CPAchecker_TMP_0':141:162:169:338:462:1187| 0)
                                         (= |main____CPAchecker_TMP_0___0':142:165:172:341:465:1190| 0)
                                         (= |__tmp_383_0':139:163:170:339:463:1188| 0)
                                         (<= (+ |main__t':140:160:167:336:460:1185|
                                                  (- havoc) 2) 0)
                                         (<= (+ (- |main__t':140:160:167:336:460:1185|)
                                                  1) 0)))
                            (<= (- |K:158:159:166:335:459:1184|) 0)
                            (= |__tmp_383_0':139:163:170:339:463:1188| 0)
                            (= |main____CPAchecker_TMP_0':141:162:169:338:462:1187| 0)
                            (<= (- |main__t':140:160:167:336:460:1185|) 0)
                            (< (+ (- havoc) 1) 0)
                            (= |__tmp_383_0':139:163:170:339:463:1188| 0)
                            (= |main____CPAchecker_TMP_0':141:162:169:338:462:1187| 0)
                            (not (= (+ |main__t':140:160:167:336:460:1185|
                                         (- havoc) 2) 0))
                            (not (= |havoc:9:59:138:334:342:466:1191| 0))
                            (= (+ |__tmp_383_0':139:163:170:339:463:1188|
                                    (- |phi___tmp_383_0:351:450:1175|)) 0)
                            (= (+ |havoc:9:59:138:334:342:466:1191|
                                    (- |phi___tmp_247_0:350:451:1176|)) 0)
                            (= (+ |main__t':140:160:167:336:460:1185|
                                    (- |phi_main__t:349:452:1177|) 1) 0)
                            (= (+ |__tmp_383_0':139:163:170:339:463:1188|
                                    (- |phi_main____CPAchecker_TMP_0:348:453:1178|)) 0)
                            (= (+ (- |phi___VERIFIER_assert__cond___11:347:454:1179|)
                                    1) 0)
                            (= (+ (ite (<= (+ (- havoc) 1) 0) 1 0)
                                    (- |phi___VERIFIER_assert__cond___12:346:455:1180|)) 0)
                            (= (+ |havoc:9:59:138:334:342:466:1191|
                                    (- |phi_main____CPAchecker_TMP_0___0:345:456:1181|)) 0)
                            (= (+ |__VERIFIER_assert__cond___15':143:161:168:337:461:1186|
                                    (- |phi___VERIFIER_assert__cond___15:344:457:1182|)) 0)
                            (= (+ |__VERIFIER_assert__cond___16':144:164:171:340:464:1189|
                                    (- |phi___VERIFIER_assert__cond___16:343:458:1183|)) 0)))
               (not (= (ite (<= (- |phi_main__t:349:452:1177|) 0) 1 0) 0))
               (= (ite (<= (+ |phi_main__t:349:452:1177| (- havoc) 1) 0) 1 0) 0)))
(check-sat)
